8
8
42
41
46
71
88
93
95
87
104
104
105
106
106
116
128
120*
130
121
123
133
139
136
145
143
149
142
150*
157
148
154
141
159
161
165
158*
160*
164
169*
163
177
178
175
176
176
181
184
184
176
169
179
188
187
169
190
181*
188*
186*
185
181
176
182
195
188
187*
189
188*
185
191
200
194
203
200*
203*
196
215
211
220
214
227
253
266
259
280
284
266
277
287
277
289
293
290
292
296
302
297
283
301
302
304
303
313*
308
305
319
310
322
303
317
326
302
328
332
316
335
314
339*
320
335
336*
340
340
346
345
341
345*
333
326
332
328
349*
352
353
348*
350
354*
321
332
351
363
325
359
365*
344
359
327
321
370
361
366*
355
345
341
369
372*
375
356
367
363
370
335
375
369
350
377
379
379
380
385
367
328
382*
388
382
349
389*
375
393
394
396
391
391
355
403
353
406
406
389
404
411
547
749
